  0  88  13  15  36  44  77  94  27  68 
 88   0  83  69  42   6  37  72   1  40 
 13  83   0  82 100  58  87  26  94  45 
 15  69  82   0  80  60  40   6  61  76 
 36  42 100  80   0   9  47  40  72  77 
 44   6  58  60   9   0  65 100  95  38 
 77  37  87  40  47  65   0  50  17  35 
 94  72  26   6  40 100  50   0   2   5 
 27   1  94  61  72  95  17   2   0  44 
 68  40  45  76  77  38  35   5  44   0 
